words_hard_train/9274.qaiger
aag 178 24 0 1 154
2
4
10
14
22
50
60
88
98
124
136
146
172
182
208
220
230
256
262
264
302
312
330
338
356
6 2 4
8 7 2
12 10 2
16 12 14
18 13 15
20 17 19
24 15 23
26 14 22
28 25 27
30 7 29
32 6 28
34 31 33
36 21 35
38 20 34
40 37 39
42 8 40
44 43 39
46 3 15
48 47 10
52 49 51
54 48 50
56 53 55
58 33 27
62 51 61
64 50 60
66 63 65
68 58 67
70 59 66
72 69 71
74 57 73
76 56 72
78 75 77
80 45 78
82 81 77
84 46 51
86 85 10
90 86 88
92 87 89
94 91 93
96 71 65
100 89 99
102 88 98
104 101 103
106 96 105
108 97 104
110 107 109
112 95 111
114 94 110
116 113 115
118 82 117
120 83 116
122 119 121
126 123 125
128 122 124
130 127 129
132 121 115
134 93 10
138 134 136
140 135 137
142 139 141
144 109 103
148 137 147
150 136 146
152 149 151
154 144 153
156 145 152
158 155 157
160 143 159
162 142 158
164 161 163
166 133 164
168 167 163
170 141 10
174 171 173
176 170 172
178 175 177
180 157 151
184 173 183
186 172 182
188 185 187
190 180 189
192 181 188
194 191 193
196 179 195
198 178 194
200 197 199
202 168 201
204 169 200
206 203 205
210 207 208
212 131 211
214 205 199
216 10 172
218 217 171
222 219 220
224 218 221
226 223 225
228 193 187
232 221 231
234 220 230
236 233 235
238 228 237
240 229 236
242 239 241
244 227 243
246 226 242
248 245 247
250 214 249
252 215 248
254 251 253
258 254 257
260 212 259
266 262 265
268 263 264
270 267 269
272 225 10
274 270 273
276 271 272
278 275 277
280 241 235
282 278 281
284 279 280
286 283 285
288 253 247
290 287 289
292 286 288
294 291 293
296 260 294
298 132 165
300 299 167
304 301 302
306 206 209
308 9 41
310 309 43
314 311 312
316 310 313
318 315 317
320 300 303
322 318 321
324 307 322
326 44 79
328 327 81
332 328 330
334 329 331
336 333 335
340 339 4
342 338 5
344 341 343
346 337 344
348 324 346
350 255 256
352 348 351
354 305 352
356 296 354
i0 1 x2[0]
i1 1 x1[0]
i2 1 x2[7]
i3 1 x2[1]
i4 1 x1[1]
i5 1 x2[2]
i6 1 x1[2]
i7 1 x2[3]
i8 1 x1[3]
i9 2 y1[3]
i10 1 x2[4]
i11 1 x1[4]
i12 1 x2[5]
i13 1 x1[5]
i14 2 y1[5]
i15 1 x2[6]
i16 1 x1[6]
i17 2 y1[6]
i18 2 y1[7]
i19 1 x1[7]
i20 2 y1[4]
i21 2 y1[1]
i22 2 y1[2]
i23 2 y1[0]
o0 bool[0]
c
simplified
  ==
    add
      abs
        1 x2
      add
        1 x2
        1 x1
    2 y1
