words_hard_train/9274.qaiger.qdimacs
p cnf 178 463
a 1 2 68 5 132 7 73 11 44 110 49 115 86 25 91 30 0
e 3 4 6 8 9 10 12 13 14 15 16 17 18 19 20 21 22 23 24 26 27 28 29 31 32 33 34 35 36 37 38 39 40 41 42 43 45 46 47 48 50 51 52 53 54 55 56 57 58 59 60 61 62 63 64 65 66 67 69 70 71 72 74 75 76 77 78 79 80 81 82 83 84 85 87 88 89 90 92 93 94 95 96 97 98 99 100 101 102 103 104 105 106 107 108 109 111 112 113 114 116 117 118 119 120 121 122 123 124 125 126 127 128 129 130 131 133 134 135 136 137 138 139 140 141 142 143 144 145 146 147 148 149 150 151 152 153 154 155 156 157 158 159 160 161 162 163 164 165 166 167 168 169 170 171 172 173 174 175 176 177 178 0
-1 -2 3 0
1 -3 0
2 -3 0
3 -1 4 0
-3 -4 0
1 -4 0
-5 -1 6 0
5 -6 0
1 -6 0
-6 -7 8 0
6 -8 0
7 -8 0
6 7 9 0
-6 -9 0
-7 -9 0
8 9 10 0
-8 -10 0
-9 -10 0
7 11 12 0
-7 -12 0
-11 -12 0
-7 -11 13 0
7 -13 0
11 -13 0
12 13 14 0
-12 -14 0
-13 -14 0
3 14 15 0
-3 -15 0
-14 -15 0
-3 -14 16 0
3 -16 0
14 -16 0
15 16 17 0
-15 -17 0
-16 -17 0
10 17 18 0
-10 -18 0
-17 -18 0
-10 -17 19 0
10 -19 0
17 -19 0
18 19 20 0
-18 -20 0
-19 -20 0
-4 -20 21 0
4 -21 0
20 -21 0
21 19 22 0
-21 -22 0
-19 -22 0
1 7 23 0
-1 -23 0
-7 -23 0
23 -5 24 0
-23 -24 0
5 -24 0
24 25 26 0
-24 -26 0
-25 -26 0
-24 -25 27 0
24 -27 0
25 -27 0
26 27 28 0
-26 -28 0
-27 -28 0
16 13 29 0
-16 -29 0
-13 -29 0
25 30 31 0
-25 -31 0
-30 -31 0
-25 -30 32 0
25 -32 0
30 -32 0
31 32 33 0
-31 -33 0
-32 -33 0
-29 33 34 0
29 -34 0
-33 -34 0
29 -33 35 0
-29 -35 0
33 -35 0
34 35 36 0
-34 -36 0
-35 -36 0
28 36 37 0
-28 -37 0
-36 -37 0
-28 -36 38 0
28 -38 0
36 -38 0
37 38 39 0
-37 -39 0
-38 -39 0
22 -39 40 0
-22 -40 0
39 -40 0
40 38 41 0
-40 -41 0
-38 -41 0
-23 25 42 0
23 -42 0
-25 -42 0
42 -5 43 0
-42 -43 0
5 -43 0
-43 -44 45 0
43 -45 0
44 -45 0
43 44 46 0
-43 -46 0
-44 -46 0
45 46 47 0
-45 -47 0
-46 -47 0
35 32 48 0
-35 -48 0
-32 -48 0
44 49 50 0
-44 -50 0
-49 -50 0
-44 -49 51 0
44 -51 0
49 -51 0
50 51 52 0
-50 -52 0
-51 -52 0
-48 52 53 0
48 -53 0
-52 -53 0
48 -52 54 0
-48 -54 0
52 -54 0
53 54 55 0
-53 -55 0
-54 -55 0
47 55 56 0
-47 -56 0
-55 -56 0
-47 -55 57 0
47 -57 0
55 -57 0
56 57 58 0
-56 -58 0
-57 -58 0
-41 58 59 0
41 -59 0
-58 -59 0
41 -58 60 0
-41 -60 0
58 -60 0
59 60 61 0
-59 -61 0
-60 -61 0
61 62 63 0
-61 -63 0
-62 -63 0
-61 -62 64 0
61 -64 0
62 -64 0
63 64 65 0
-63 -65 0
-64 -65 0
60 57 66 0
-60 -66 0
-57 -66 0
46 -5 67 0
-46 -67 0
5 -67 0
-67 -68 69 0
67 -69 0
68 -69 0
67 68 70 0
-67 -70 0
-68 -70 0
69 70 71 0
-69 -71 0
-70 -71 0
54 51 72 0
-54 -72 0
-51 -72 0
68 73 74 0
-68 -74 0
-73 -74 0
-68 -73 75 0
68 -75 0
73 -75 0
74 75 76 0
-74 -76 0
-75 -76 0
-72 76 77 0
72 -77 0
-76 -77 0
72 -76 78 0
-72 -78 0
76 -78 0
77 78 79 0
-77 -79 0
-78 -79 0
71 79 80 0
-71 -80 0
-79 -80 0
-71 -79 81 0
71 -81 0
79 -81 0
80 81 82 0
-80 -82 0
-81 -82 0
66 -82 83 0
-66 -83 0
82 -83 0
83 81 84 0
-83 -84 0
-81 -84 0
70 -5 85 0
-70 -85 0
5 -85 0
85 86 87 0
-85 -87 0
-86 -87 0
-85 -86 88 0
85 -88 0
86 -88 0
87 88 89 0
-87 -89 0
-88 -89 0
78 75 90 0
-78 -90 0
-75 -90 0
86 91 92 0
-86 -92 0
-91 -92 0
-86 -91 93 0
86 -93 0
91 -93 0
92 93 94 0
-92 -94 0
-93 -94 0
-90 94 95 0
90 -95 0
-94 -95 0
90 -94 96 0
-90 -96 0
94 -96 0
95 96 97 0
-95 -97 0
-96 -97 0
89 97 98 0
-89 -98 0
-97 -98 0
-89 -97 99 0
89 -99 0
97 -99 0
98 99 100 0
-98 -100 0
-99 -100 0
-84 100 101 0
84 -101 0
-100 -101 0
84 -100 102 0
-84 -102 0
100 -102 0
101 102 103 0
-101 -103 0
-102 -103 0
103 -104 105 0
-103 -105 0
104 -105 0
65 105 106 0
-65 -106 0
-105 -106 0
102 99 107 0
-102 -107 0
-99 -107 0
-5 -86 108 0
5 -108 0
86 -108 0
108 85 109 0
-108 -109 0
-85 -109 0
109 -110 111 0
-109 -111 0
110 -111 0
-109 110 112 0
109 -112 0
-110 -112 0
111 112 113 0
-111 -113 0
-112 -113 0
96 93 114 0
-96 -114 0
-93 -114 0
110 115 116 0
-110 -116 0
-115 -116 0
-110 -115 117 0
110 -117 0
115 -117 0
116 117 118 0
-116 -118 0
-117 -118 0
-114 118 119 0
114 -119 0
-118 -119 0
114 -118 120 0
-114 -120 0
118 -120 0
119 120 121 0
-119 -121 0
-120 -121 0
113 121 122 0
-113 -122 0
-121 -122 0
-113 -121 123 0
113 -123 0
121 -123 0
122 123 124 0
-122 -124 0
-123 -124 0
-107 124 125 0
107 -125 0
-124 -125 0
107 -124 126 0
-107 -126 0
124 -126 0
125 126 127 0
-125 -127 0
-126 -127 0
-127 128 129 0
127 -129 0
-128 -129 0
-106 129 130 0
106 -130 0
-129 -130 0
-131 132 133 0
131 -133 0
-132 -133 0
131 -132 134 0
-131 -134 0
132 -134 0
133 134 135 0
-133 -135 0
-134 -135 0
112 -5 136 0
-112 -136 0
5 -136 0
-135 136 137 0
135 -137 0
-136 -137 0
135 -136 138 0
-135 -138 0
136 -138 0
137 138 139 0
-137 -139 0
-138 -139 0
120 117 140 0
-120 -140 0
-117 -140 0
-139 140 141 0
139 -141 0
-140 -141 0
139 -140 142 0
-139 -142 0
140 -142 0
141 142 143 0
-141 -143 0
-142 -143 0
126 123 144 0
-126 -144 0
-123 -144 0
143 144 145 0
-143 -145 0
-144 -145 0
-143 -144 146 0
143 -146 0
144 -146 0
145 146 147 0
-145 -147 0
-146 -147 0
-130 -147 148 0
130 -148 0
147 -148 0
-66 82 149 0
66 -149 0
-82 -149 0
149 83 150 0
-149 -150 0
-83 -150 0
150 -151 152 0
-150 -152 0
151 -152 0
-103 104 153 0
103 -153 0
-104 -153 0
4 20 154 0
-4 -154 0
-20 -154 0
154 21 155 0
-154 -155 0
-21 -155 0
155 -156 157 0
-155 -157 0
156 -157 0
-155 156 158 0
155 -158 0
-156 -158 0
157 158 159 0
-157 -159 0
-158 -159 0
-150 151 160 0
150 -160 0
-151 -160 0
-159 160 161 0
159 -161 0
-160 -161 0
153 -161 162 0
-153 -162 0
161 -162 0
-22 39 163 0
22 -163 0
-39 -163 0
163 40 164 0
-163 -164 0
-40 -164 0
-164 -165 166 0
164 -166 0
165 -166 0
164 165 167 0
-164 -167 0
-165 -167 0
166 167 168 0
-166 -168 0
-167 -168 0
169 -2 170 0
-169 -170 0
2 -170 0
-169 2 171 0
169 -171 0
-2 -171 0
170 171 172 0
-170 -172 0
-171 -172 0
168 -172 173 0
-168 -173 0
172 -173 0
-162 -173 174 0
162 -174 0
173 -174 0
127 -128 175 0
-127 -175 0
128 -175 0
-174 175 176 0
174 -176 0
-175 -176 0
152 -176 177 0
-152 -177 0
176 -177 0
-148 -177 178 0
148 -178 0
177 -178 0
178 0
